NAME : cgl_66.8217.tour
COMMENT : Length = 8217
COMMENT : Found by LKH-3 [Keld Helsgaun] Fri Nov  8 17:38:20 2024
TYPE : TOUR
DIMENSION : 67
TOUR_SECTION
7
29
30
24
15
32
23
28
19
27
31
17
5
25
26
14
20
16
18
22
21
33
11
10
34
35
36
37
67
66
65
64
60
63
61
62
59
54
52
53
57
58
55
56
51
48
50
49
47
46
45
44
43
39
40
41
42
38
1
3
2
4
13
12
9
6
8
-1
EOF
